
  32    4
  10   10   10   10

   0   0   0   0   0   3 2 30 31 
   9   1   1   0   1   1 3 
  10   6   4   1   0   3 29 20 4 
  10   3   4   6   0   1 5 
   2   0   5   7   2   2 28 6 
   6   3   7   4   0   1 7 
   8   0   2   2   5   4 27 26 17 8 
   1   7   0   5   5   2 25 9 
   1   0   5   2   4   2 24 10 
   4   6   2   4   0   2 23 11 
   8   3   3   0   7   1 12 
   6   2   3   3   0   1 13 
   1   3   6   4   0   1 14 
  10   2   3   0   4   1 15 
   2   3   0   3   6   1 16 
   8   5   3   5   0   2 22 18 
  10   4   5   0   3   2 22 19 
   7   8   0   5   3   1 19 
  10   2   4   0   4   1 21 
   1   0   4   3   5   1 22 
   6   0   4   5   3   1 32
  10   3   4   1   0   1 32
   6   3   7   3   0   1 32
   6   6   3   6   0   1 32
   6   5   0   4   7   1 32
   7   3   0   5   5   1 32
   3   0   4   5   6   1 32
   4   4   2   5   0   1 32
   6   4   2   0   1   1 32
   4   6   0   5   1   1 32
   5   4   9   3   0   1 32
   0   0   0   0   0   0 
